nbV = 16;
nbE = 18;
map = [|false,false,false,false,true,true,true,false,false,false,false,false,false,false,false,false,false,false
|true,true,false,false,false,false,false,false,false,false,false,false,false,false,false,false,false,false
|false,false,false,false,false,false,false,false,false,false,false,false,true,false,false,false,false,false
|false,false,false,false,false,false,false,true,true,true,false,false,false,false,false,false,false,false
|false,false,false,false,false,false,false,false,false,false,false,false,false,false,false,true,true,false
|false,false,false,false,false,false,false,false,true,false,false,false,false,false,false,false,false,false
|false,false,true,false,false,false,false,false,false,false,false,false,false,false,false,false,false,false
|false,true,false,false,false,false,false,false,false,false,false,false,false,false,false,false,false,false
|false,false,false,false,false,false,false,false,false,false,false,false,false,true,true,false,false,false
|false,false,false,false,false,false,false,false,false,false,false,false,false,false,false,false,false,true
|true,false,true,false,false,false,true,false,false,false,false,false,false,false,false,false,false,false
|false,false,false,true,false,true,false,false,false,true,false,false,false,false,false,false,false,false
|false,false,false,true,false,false,false,true,false,false,true,false,false,false,false,false,true,false
|false,false,false,false,true,false,false,false,false,false,true,true,false,false,false,false,false,false
|false,false,false,false,false,false,false,false,false,false,false,true,true,false,true,false,false,false
|false,false,false,false,false,false,false,false,false,false,false,false,false,true,false,true,false,true
|];
endnodes = [|false,true,false,false,false,false,false,false,false,false,true,false,false,false,false,false
|false,true,false,false,false,false,false,true,false,false,false,false,false,false,false,false
|false,false,false,false,false,false,true,false,false,false,true,false,false,false,false,false
|false,false,false,false,false,false,false,false,false,false,false,true,true,false,false,false
|true,false,false,false,false,false,false,false,false,false,false,false,false,true,false,false
|true,false,false,false,false,false,false,false,false,false,false,true,false,false,false,false
|true,false,false,false,false,false,false,false,false,false,true,false,false,false,false,false
|false,false,false,true,false,false,false,false,false,false,false,false,true,false,false,false
|false,false,false,true,false,true,false,false,false,false,false,false,false,false,false,false
|false,false,false,true,false,false,false,false,false,false,false,true,false,false,false,false
|false,false,false,false,false,false,false,false,false,false,false,false,true,true,false,false
|false,false,false,false,false,false,false,false,false,false,false,false,false,true,true,false
|false,false,true,false,false,false,false,false,false,false,false,false,false,false,true,false
|false,false,false,false,false,false,false,false,true,false,false,false,false,false,false,true
|false,false,false,false,false,false,false,false,true,false,false,false,false,false,true,false
|false,false,false,false,true,false,false,false,false,false,false,false,false,false,false,true
|false,false,false,false,true,false,false,false,false,false,false,false,true,false,false,false
|false,false,false,false,false,false,false,false,false,true,false,false,false,false,false,true
|];
terminals = {1,2,3,4,5,6,7,8,9,10};
link_cost = [243146,902560,600564,475373,475373,819765,2463719,251525,1078922,726898,819765,3156513,2274493,1795014,842671,2912151,3560452,825508];
